&CONTROL
  calculation = 'scf'
  restart_mode = 'from_scratch'
  prefix = 'B2N2_chain'
  outdir = './'
  pseudo_dir = './'
  verbosity = 'high'
/
&SYSTEM
  ibrav = 0
  nat = 4
  ntyp = 2
  occupations = 'fixed'
  ecutwfc = 70.0
  ecutrho = 280.0
/
&ELECTRONS
  conv_thr = 1.0d-8
  mixing_beta = 0.3
  electron_maxstep = 200
/
ATOMIC_SPECIES
B 10.810 B_ONCV_PBE-1.0.upf
N 14.007 N_ONCV_PBE-1.0.upf
CELL_PARAMETERS angstrom
   12.0000000000   0.0000000000   0.0000000000
   0.0000000000   12.0000000000   0.0000000000
   0.0000000000   0.0000000000   5.2000000000
ATOMIC_POSITIONS crystal
B   0.5000000000   0.5000000000   0.0000000000
N   0.5000000000   0.5000000000   0.2500000000
B   0.5000000000   0.5000000000   0.5000000000
N   0.5000000000   0.5000000000   0.7500000000
K_POINTS automatic
1 1 10  0 0 0
