&CONTROL
calculation = 'scf'
restart_mode = 'from_scratch'
outdir = './'
prefix = 'Mg'
pseudo_dir = '/public/home/xiongyf/pp/sg15'
/
&SYSTEM
ibrav = 0
nat=           2
ntyp=           1
occupations = 'smearing'
smearing = 'gauss'
degauss = 0.005
ecutwfc = 80
ecutrho = 320
/
&ELECTRONS
electron_maxstep = 250
conv_thr = 1.0D-10
diagonalization = 'david'
/
ATOMIC_SPECIES
Mg 24.305 Mg_ONCV_PBE-1.0.upf
CELL_PARAMETERS angstrom
     3.1985292695721044    0.0000000000000000    0.0000000000000000
    -1.5992646347860522    2.7700076021171047    0.0000000000000000
     0.0000000000000000    0.0000000000000000    5.1412048339999998
ATOMIC_POSITIONS (crystal)
Mg  0.3333333429999996  0.6666666870000029  0.2500000000000000
Mg  0.6666666570000004  0.3333333129999971  0.7500000000000000
K_POINTS { automatic }
15 15 8 0 0 0
