&CONTROL
calculation = 'scf'
restart_mode = 'from_scratch'
outdir = './'
prefix = 'AlAs'
pseudo_dir = '/public/home/xiongyf/pp/sg15'
/
&SYSTEM
ibrav = 0
nat=           8
ntyp=           2
occupations = 'fixed'
ecutwfc = 80
ecutrho = 320
/
&ELECTRONS
electron_maxstep = 250
conv_thr = 1.0D-10
diagonalization = 'david'
/
ATOMIC_SPECIES
Al 26.982 Al_ONCV_PBE-1.0.upf
As 74.922 As_ONCV_PBE-1.0.upf
CELL_PARAMETERS angstrom
     5.7327022931100906   -0.0000000000000000   -0.0000000000000000
     0.0000000000000000    5.7327022931100906   -0.0000000000000000
     0.0000000000000000    0.0000000000000000    5.7327022931100906
ATOMIC_POSITIONS (crystal)
Al  0.0000000000000000  0.0000000000000000  0.0000000000000000
Al  0.0000000000000000  0.5000000000000000  0.5000000000000000
Al  0.5000000000000000  0.0000000000000000  0.5000000000000000
Al  0.5000000000000000  0.5000000000000000  0.0000000000000000
As  0.2500000000000000  0.2500000000000000  0.7500000000000000
As  0.7500000000000000  0.7500000000000000  0.7500000000000000
As  0.7500000000000000  0.2500000000000000  0.2500000000000000
As  0.2500000000000000  0.7500000000000000  0.2500000000000000
K_POINTS { automatic }
5 5 5 0 0 0
