&CONTROL
calculation = 'scf'
restart_mode = 'from_scratch'
outdir = './'
prefix = 'hbn'
pseudo_dir = '/public/home/xiongyf/pp/sg15'
/
&SYSTEM
ibrav = 0
nat=           2
ntyp=           2
occupations = 'fixed'
ecutwfc = 80
ecutrho = 320
/
&ELECTRONS
electron_maxstep = 250
conv_thr = 1.0D-10
diagonalization = 'david'
/
ATOMIC_SPECIES
B 10.81 B_ONCV_PBE-1.0.upf
N 14.007 N_ONCV_PBE-1.0.upf
CELL_PARAMETERS angstrom
     2.5123709519125912    0.0000000000000000    0.0000000000000000
    -1.2561854759562956    2.1757770680863961    0.0000000000000000
     0.0000000000000000    0.0000000000000000   15.0000000000000000
ATOMIC_POSITIONS (crystal)
B  0.0000000000000000  0.0000000000000000  0.5000000000000000
N  0.3333333333333357  0.6666666666666643  0.5000000000000000
K_POINTS { automatic }
8 8 1 0 0 0
